Cost: 1240
0-14-17-16-15-12-39-38-37-36-9-10-32-8-7-4-6-5-48-3-31-46-0
0-34-1-2-33-26-25-24-42-21-22-40-41-50-23-54-27-49-43-44-28-45-30-0
Cost: 1240
0-14-17-16-15-12-39-38-37-36-9-10-32-8-7-4-6-5-3-48-31-46-0
0-34-1-2-33-26-25-24-42-21-22-40-41-50-23-54-27-49-43-44-28-45-30-0
Cost: 1241
0-31-48-3-5-6-4-7-32-8-36-37-9-10-12-39-38-14-15-16-17-33-0
0-34-1-2-52-26-25-24-42-22-40-41-21-23-54-27-49-43-44-28-45-30-46-0
Cost: 1240
0-34-2-33-26-25-24-42-22-40-41-21-50-23-54-27-49-43-44-28-45-30-0
0-1-14-17-16-15-12-39-38-37-36-9-10-32-8-7-4-6-5-3-48-31-46-0
Cost: 1240
0-1-2-14-17-16-15-12-39-38-37-36-9-10-32-8-7-4-6-5-48-3-31-0
0-34-33-26-25-24-42-21-22-40-41-50-23-54-27-49-43-44-28-45-30-46-0
Cost: 1240
0-1-2-17-16-15-14-12-39-38-37-36-9-10-32-8-7-4-6-5-3-48-31-0
0-34-33-26-25-24-42-21-22-40-41-50-23-54-27-49-43-44-28-45-30-46-0
Cost: 1241
0-31-48-3-5-6-4-7-32-8-36-37-9-10-12-39-38-14-15-16-17-33-0
0-34-1-2-52-26-25-24-42-22-40-41-21-23-54-27-49-43-44-28-45-30-46-0
Cost: 1234
0-34-1-2-33-26-25-24-42-21-22-41-50-23-54-27-49-43-44-28-45-30-46-0
0-14-17-16-15-12-39-38-37-36-9-10-32-8-7-35-4-6-5-3-48-31-0
Cost: 1240
0-2-14-17-16-15-12-39-38-37-36-9-10-32-8-7-4-6-5-3-48-31-46-0
0-34-1-33-26-25-24-42-22-40-41-21-50-23-54-27-49-43-44-28-45-30-0
Cost: 1234
0-34-1-2-33-26-25-24-42-22-41-21-50-23-54-27-49-43-44-28-45-30-46-0
0-14-17-16-15-12-39-38-37-36-9-10-32-8-7-35-4-6-5-48-3-31-0
Cost: 1241
0-31-48-3-5-6-4-7-32-8-36-37-9-10-12-39-38-14-15-16-17-33-0
0-34-1-2-52-26-25-24-42-22-40-41-21-23-54-27-49-43-44-28-45-30-46-0
Cost: 1241
0-34-1-2-52-26-25-24-42-22-40-41-21-23-54-27-49-43-44-28-45-30-46-0
0-31-3-5-6-4-7-32-8-36-9-37-10-51-12-39-38-14-15-16-17-33-0
Cost: 1234
0-34-1-2-33-26-25-24-42-22-41-21-50-23-54-27-49-43-44-28-45-30-46-0
0-17-16-15-14-12-39-38-37-36-9-10-32-8-7-35-4-6-5-48-3-31-0
Cost: 1240
0-34-1-2-33-26-25-24-42-21-22-40-41-50-23-54-27-49-43-44-28-45-30-0
0-17-16-15-14-12-39-38-37-36-9-10-32-8-7-4-6-5-3-48-31-46-0
Cost: 1240
0-2-17-16-15-14-12-39-38-37-36-9-10-32-8-7-4-6-5-3-48-31-0
0-34-1-33-26-25-24-42-22-40-41-21-50-23-54-27-49-43-44-28-45-30-46-0
Cost: 1241
0-34-1-2-52-26-25-24-42-22-40-41-21-23-54-27-49-43-44-28-45-30-46-0
0-31-3-5-6-4-7-32-8-36-9-37-10-51-12-39-38-14-15-16-17-33-0
Cost: 1241
0-34-1-2-52-26-25-24-42-22-40-41-21-23-54-27-49-43-44-28-45-30-46-0
0-31-3-5-6-4-7-32-8-36-9-37-10-51-12-39-38-14-15-16-17-33-0
Cost: 1241
0-34-1-2-52-26-25-24-42-21-22-40-41-50-23-27-49-43-44-28-45-30-46-0
0-31-48-3-5-6-4-7-32-8-36-9-37-12-39-38-10-14-15-16-17-33-0
Cost: 1241
0-34-1-2-52-26-25-24-42-22-40-41-21-23-54-27-49-43-44-28-45-30-46-0
0-31-3-5-6-4-7-32-8-36-9-37-10-51-12-39-38-14-15-16-17-33-0
Cost: 1234
0-34-1-2-33-26-25-24-42-21-22-41-50-23-54-27-49-43-44-28-45-30-46-0
0-14-17-16-15-12-39-38-37-36-9-10-32-8-7-35-4-6-5-3-48-31-0
Cost: 1234
0-34-1-2-33-26-25-24-42-22-41-21-50-23-54-27-49-43-44-28-45-30-46-0
0-17-16-15-14-12-39-38-37-36-9-10-32-8-7-35-4-6-5-48-3-31-0
Cost: 1234
0-34-1-2-33-26-25-24-42-21-22-41-50-23-54-27-49-43-44-28-45-30-46-0
0-14-17-16-15-12-39-38-37-36-9-10-32-8-7-35-4-6-5-48-3-31-0
Cost: 1234
0-34-1-2-33-26-25-24-42-21-22-41-50-23-54-27-49-43-44-28-45-30-46-0
0-14-17-16-15-12-39-38-37-36-9-10-32-8-7-35-4-6-5-48-3-31-0
Cost: 1234
0-34-1-2-33-26-25-24-42-21-22-41-50-23-54-27-49-43-44-28-45-30-46-0
0-17-16-15-14-12-39-38-37-36-9-10-32-8-7-35-4-6-5-3-48-31-0
Cost: 1234
0-34-1-2-33-26-25-24-42-21-22-41-50-23-54-27-49-43-44-28-45-30-46-0
0-17-16-15-14-12-39-38-37-36-9-10-32-8-7-35-4-6-5-3-48-31-0
Cost: 1240
0-1-17-16-15-14-12-39-38-37-36-9-10-32-8-7-4-6-5-3-48-31-46-0
0-34-2-33-26-25-24-42-22-40-41-21-50-23-54-27-49-43-44-28-45-30-0
Cost: 1234
0-34-1-2-33-26-25-24-42-21-22-41-50-23-54-27-49-43-44-28-45-30-46-0
0-17-16-15-14-12-39-38-37-36-9-10-32-8-7-35-4-6-5-3-48-31-0
Cost: 1234
0-34-1-2-33-26-25-24-42-22-41-21-50-23-54-27-49-43-44-28-45-30-46-0
0-17-16-15-14-12-39-38-37-36-9-10-32-8-7-35-4-6-5-48-3-31-0
Cost: 1240
0-34-1-2-33-26-25-24-42-21-22-40-41-50-23-54-27-49-43-44-28-45-30-0
0-17-16-15-14-12-39-38-37-36-9-10-32-8-7-4-6-5-48-3-31-46-0
Cost: 1240
0-34-1-2-33-26-25-24-42-21-22-40-41-50-23-54-27-49-43-44-28-45-30-0
0-17-16-15-14-12-39-38-37-36-9-10-32-8-7-4-6-5-48-3-31-46-0
Cost: 1234
0-14-17-16-15-12-39-38-37-36-9-10-32-8-7-35-4-6-5-3-48-31-0
0-34-1-2-33-26-25-24-42-21-22-41-50-23-54-27-49-43-44-28-45-30-46-0
Cost: 1265
0-31-3-4-5-6-7-32-8-36-37-9-10-51-12-39-38-14-16-17-55-33-0
0-34-1-2-52-26-25-24-42-21-22-20-40-41-50-23-54-27-49-43-28-30-46-0
Cost: 1241
0-34-1-2-52-26-25-24-42-22-40-41-21-50-23-54-27-49-43-44-28-45-30-0
0-31-3-5-6-4-7-32-8-36-37-9-10-51-12-39-38-14-15-16-17-33-0
Cost: 1234
0-34-1-2-33-26-25-24-42-22-41-21-50-23-54-27-49-43-44-28-45-30-46-0
0-14-17-16-15-12-39-38-37-36-9-10-32-8-7-35-4-6-5-48-3-31-0
Cost: 1240
0-1-2-33-26-25-24-42-22-40-41-21-50-23-54-27-49-43-44-28-45-30-46-0
0-34-14-17-16-15-12-39-38-37-36-9-10-32-8-7-4-6-5-3-48-31-0
